     Program PWSCF v.6.6 starts on 26Oct2020 at  0: 7:54

     R & G space division:  proc/nbgrp/npool/nimage =       4
     Fft bands division:     nmany     =       1
     Reading input from pw.in

     Current dimensions of program PWSCF are:
     Max number of different atomic species (ntypx) = 10
     Max number of k-points (npk) =  40000
     Max angular momentum in pseudopotentials (lmaxx) =  3
     file Pb.pbesol-dn-rrkjus_psl.1.0.0.UPF: wavefunction(s)  6S 5D renormalized
     file Cs.pbesol-spn-rrkjus_psl.1.0.0.UPF: wavefunction(s)  5S 6S renormalized
     Message from routine setup:
     At least one non s.o. pseudo

     Subspace diagonalization in iterative solution of the eigenvalue problem:
     a serial algorithm will be used

     bravais-lattice index     =            8
     lattice parameter (alat)  =      15.4925  a.u.
     unit-cell volume          =    5352.3908 (a.u.)^3
     number of atoms/cell      =           20
     number of atomic types    =            3
     number of electrons       =       296.00
     number of Kohn-Sham states=          296
     kinetic-energy cutoff     =      50.0000  Ry
     charge density cutoff     =     400.0000  Ry
     convergence threshold     =      1.0E-07
     mixing beta               =       0.4000
     number of iterations used =            8  plain     mixing
     Exchange-correlation= PBESOL
                           (   1   4  10   8   0   0   0)
     Non magnetic calculation with spin-orbit

     celldm(1)=  15.492504  celldm(2)=   1.005585  celldm(3)=   1.431410
     celldm(4)=   0.000000  celldm(5)=   0.000000  celldm(6)=   0.000000

     crystal axes: (cart. coord. in units of alat)
               a(1) = (   1.000000   0.000000   0.000000 )
               a(2) = (   0.000000   1.005585   0.000000 )
               a(3) = (   0.000000   0.000000   1.431410 )

     reciprocal axes: (cart. coord. in units 2 pi/alat)
               b(1) = (  1.000000  0.000000  0.000000 )
               b(2) = (  0.000000  0.994446  0.000000 )
               b(3) = (  0.000000  0.000000  0.698612 )

     PseudoPot. # 1 for Pb read from file:
     ../CsPbBr3/UPFs/Pb.pbesol-dn-rrkjus_psl.1.0.0.UPF
     MD5 check sum: de3ab99dd67dee7d7d2dd23c284b8fbc
     Pseudo is Ultrasoft + core correction, Zval = 14.0
     Generated using "atomic" code by A. Dal Corso v.6.3
     Using radial grid of 1281 points,  6 beta functions with:
                l(1) =   0
                l(2) =   0
                l(3) =   1
                l(4) =   1
                l(5) =   2
                l(6) =   2
     Q(r) pseudized with 0 coefficients

     PseudoPot. # 2 for Cs read from file:
     ../CsPbBr3/UPFs/Cs.pbesol-spn-rrkjus_psl.1.0.0.UPF
     MD5 check sum: a505fbb08e6a224ea4404a33e275d1b5
     Pseudo is Ultrasoft + core correction, Zval =  9.0
     Generated using "atomic" code by A. Dal Corso v.6.4.1
     Using radial grid of 1251 points,  9 beta functions with:
                l(1) =   0
                l(2) =   0
                l(3) =   0
                l(4) =   1
                l(5) =   1
                l(6) =   2
                l(7) =   2
                l(8) =   3
                l(9) =   3
     Q(r) pseudized with 0 coefficients

     PseudoPot. # 3 for Br read from file:
     ../CsPbBr3/UPFs/Br.pbesol-dn-rrkjus_psl.1.0.0.UPF
     MD5 check sum: 7a9ea7f62137b108585ade6af3d534e6
     Pseudo is Ultrasoft + core correction, Zval = 17.0
     Generated using "atomic" code by A. Dal Corso v.6.3
     Using radial grid of 1213 points,  6 beta functions with:
                l(1) =   0
                l(2) =   0
                l(3) =   1
                l(4) =   1
                l(5) =   2
                l(6) =   2
     Q(r) pseudized with 0 coefficients

     atomic species   valence    mass     pseudopotential
        Pb            14.00   207.20000     Pb( 1.00)
        Cs             9.00   132.90545     Cs( 1.00)
        Br            17.00    79.90400     Br( 1.00)

      8 Sym. Ops., with inversion, found ( 6 have fractional translation)

   Cartesian axes

     site n.     atom                  positions (alat units)
         1           Pb  tau(   1) = (   0.0000000   0.0000000   0.7157057  )
         2           Pb  tau(   2) = (   0.5000000   0.5027927   0.7157057  )
         3           Pb  tau(   3) = (   0.0000000   0.0000000   0.0000000  )
         4           Pb  tau(   4) = (   0.5000000   0.5027927   0.0000000  )
         5           Cs  tau(   5) = (   0.0070200   0.5339255   0.3578529  )
         6           Cs  tau(   6) = (   0.9929800   0.4716598   1.0735585  )
         7           Cs  tau(   7) = (   0.5070200   0.9744524   1.0735585  )
         8           Cs  tau(   8) = (   0.4929800   0.0311329   0.3578529  )
         9           Br  tau(   9) = (   0.2060718   0.2951109   0.6815112  )
        10           Br  tau(  10) = (   0.7939282   0.7104744   0.7499001  )
        11           Br  tau(  11) = (   0.7060718   0.2076817   0.7499001  )
        12           Br  tau(  12) = (   0.2939282   0.7979036   0.6815112  )
        13           Br  tau(  13) = (   0.7939282   0.7104744   1.3972170  )
        14           Br  tau(  14) = (   0.2060718   0.2951109   0.0341944  )
        15           Br  tau(  15) = (   0.2939282   0.7979036   0.0341944  )
        16           Br  tau(  16) = (   0.7060718   0.2076817   1.3972170  )
        17           Br  tau(  17) = (   0.0455400   0.0037609   1.0735585  )
        18           Br  tau(  18) = (   0.9544600   1.0018244   0.3578529  )
        19           Br  tau(  19) = (   0.5455400   0.4990317   0.3578529  )
        20           Br  tau(  20) = (   0.4544600   0.5065536   1.0735585  )

     number of k points=    18
                       cart. coord. in units 2pi/alat
        k(    1) = (   0.1000000   0.0994446   0.0873265), wk =   0.0800000
        k(    2) = (   0.1000000   0.0994446   0.2619794), wk =   0.0800000
        k(    3) = (   0.1000000   0.2983337   0.0873265), wk =   0.0800000
        k(    4) = (   0.1000000   0.2983337   0.2619794), wk =   0.0800000
        k(    5) = (   0.1000000  -0.4972229   0.0873265), wk =   0.0400000
        k(    6) = (   0.1000000  -0.4972229   0.2619794), wk =   0.0400000
        k(    7) = (   0.3000000   0.0994446   0.0873265), wk =   0.0800000
        k(    8) = (   0.3000000   0.0994446   0.2619794), wk =   0.0800000
        k(    9) = (   0.3000000   0.2983337   0.0873265), wk =   0.0800000
        k(   10) = (   0.3000000   0.2983337   0.2619794), wk =   0.0800000
        k(   11) = (   0.3000000  -0.4972229   0.0873265), wk =   0.0400000
        k(   12) = (   0.3000000  -0.4972229   0.2619794), wk =   0.0400000
        k(   13) = (  -0.5000000   0.0994446   0.0873265), wk =   0.0400000
        k(   14) = (  -0.5000000   0.0994446   0.2619794), wk =   0.0400000
        k(   15) = (  -0.5000000   0.2983337   0.0873265), wk =   0.0400000
        k(   16) = (  -0.5000000   0.2983337   0.2619794), wk =   0.0400000
        k(   17) = (  -0.5000000  -0.4972229   0.0873265), wk =   0.0200000
        k(   18) = (  -0.5000000  -0.4972229   0.2619794), wk =   0.0200000

     Initial potential from superposition of free atoms

     starting charge  295.83785, renormalised to  296.00000
     Starting wfcs are  328 randomized atomic wfcs

     Self-consistent Calculation

     iteration #  1     ecut=    50.00 Ry     beta= 0.40
     Davidson diagonalization with overlap
     ethr =  1.00E-02,  avg # of iterations =  1.0

     Threshold (ethr) on eigenvalues was too large:
     Diagonalizing with lowered threshold

     Davidson diagonalization with overlap
     ethr =  1.97E-04,  avg # of iterations =  4.1

     total energy              =   -4345.71071761 Ry
     estimated scf accuracy    <       0.46479946 Ry

[...]

     total energy              =   -4345.79146011 Ry
     estimated scf accuracy    <       0.00000071 Ry

     iteration #  9     ecut=    50.00 Ry     beta= 0.40
     Davidson diagonalization with overlap
     ethr =  2.38E-10,  avg # of iterations =  5.1

     End of self-consistent calculation

          k = 0.1000 0.0994 0.0873 ( 31974 PWs)   bands (ev):

   -55.9895 -55.9895 -55.9894 -55.9894 -55.9890 -55.9890 -55.9889 -55.9889
   -55.9746 -55.9746 -55.9746 -55.9746 -55.9743 -55.9743 -55.9741 -55.9741
   -55.9741 -55.9741 -55.9741 -55.9741 -55.9739 -55.9739 -55.9737 -55.9737
   -55.9688 -55.9688 -55.9687 -55.9687 -55.9683 -55.9683 -55.9683 -55.9683
   -55.9668 -55.9668 -55.9668 -55.9668 -55.9664 -55.9664 -55.9663 -55.9663
   -55.9544 -55.9544 -55.9543 -55.9543 -55.9541 -55.9541 -55.9540 -55.9540
   -55.9539 -55.9539 -55.9538 -55.9538 -55.9538 -55.9538 -55.9537 -55.9537
   -55.9535 -55.9535 -55.9535 -55.9535 -55.9533 -55.9533 -55.9532 -55.9532
   -55.9531 -55.9531 -55.9530 -55.9530 -55.9529 -55.9529 -55.9528 -55.9528
   -55.9094 -55.9094 -55.9093 -55.9093 -55.9090 -55.9090 -55.9090 -55.9090
   -55.9089 -55.9089 -55.9089 -55.9089 -55.9086 -55.9086 -55.9085 -55.9085
   -55.8978 -55.8978 -55.8977 -55.8977 -55.8975 -55.8975 -55.8975 -55.8975
   -55.8974 -55.8974 -55.8973 -55.8973 -55.8973 -55.8973 -55.8972 -55.8972
   -55.8971 -55.8971 -55.8971 -55.8971 -55.8970 -55.8970 -55.8970 -55.8970
   -55.8969 -55.8969 -55.8968 -55.8968 -55.8967 -55.8967 -55.8966 -55.8966
   -16.7344 -16.7344 -16.7329 -16.7329 -16.7318 -16.7318 -16.7306 -16.7306
   -12.4352 -12.4352 -12.4295 -12.4295 -12.4283 -12.4283 -12.4093 -12.4093
   -12.3786 -12.3786 -12.3497 -12.3497 -12.3456 -12.3456 -12.3438 -12.3438
   -12.2931 -12.2931 -12.2923 -12.2923 -12.2919 -12.2919 -12.2911 -12.2911
   -12.2911 -12.2911 -12.2902 -12.2902 -12.2900 -12.2900 -12.2892 -12.2892
   -12.2890 -12.2890 -12.2884 -12.2884 -12.2874 -12.2874 -12.2869 -12.2869
   -10.3393 -10.3393 -10.1687 -10.1687 -10.0339 -10.0339 -10.0023 -10.0023
    -9.9869  -9.9869  -9.9819  -9.9819  -9.9770  -9.9770  -9.9663  -9.9663
    -9.8828  -9.8828  -9.7157  -9.7157  -9.7070  -9.7070  -9.6980  -9.6980
    -4.4606  -4.4606  -3.9488  -3.9488  -3.5826  -3.5826  -3.5810  -3.5810
    -3.5643  -3.5643  -3.5628  -3.5628  -3.5552  -3.5552  -3.5484  -3.5484
    -3.5370  -3.5370  -3.5323  -3.5323  -3.5275  -3.5275  -3.5264  -3.5264
    -3.5230  -3.5230  -3.5193  -3.5193  -3.4493  -3.4493  -2.8470  -2.8470
     0.1910   0.1910   0.2134   0.2134   0.2815   0.2815   0.3642   0.3642
     0.4068   0.4068   0.4294   0.4294   1.4028   1.4028   1.5530   1.5530
     1.5978   1.5978   1.6538   1.6538   1.6591   1.6591   1.6883   1.6883
     1.8569   1.8569   1.8922   1.8922   2.0273   2.0273   2.0513   2.0513
     2.0691   2.0691   2.1016   2.1016   2.1509   2.1509   2.2115   2.2115
     2.2302   2.2302   2.2525   2.2525   2.2734   2.2734   2.3002   2.3002
     2.3020   2.3020   2.3202   2.3202   2.3809   2.3809   2.4296   2.4296
     2.4397   2.4397   2.5590   2.5590   2.6204   2.6204   2.6507   2.6507
     2.7410   2.7410   2.9678   2.9678   3.4091   3.4091   3.9544   3.9544

[...]

          k = 0.3000-0.4972 0.2620 ( 31972 PWs)   bands (ev):

[...]

          k =-0.5000 0.0994 0.0873 ( 31936 PWs)   bands (ev):

[...]

          k =-0.5000-0.4972 0.2620 ( 31968 PWs)   bands (ev):

   -55.9894 -55.9894 -55.9894 -55.9894 -55.9890 -55.9890 -55.9889 -55.9889
   -55.9747 -55.9747 -55.9746 -55.9746 -55.9743 -55.9743 -55.9742 -55.9742
   -55.9742 -55.9742 -55.9742 -55.9742 -55.9739 -55.9739 -55.9738 -55.9738
   -55.9688 -55.9688 -55.9688 -55.9688 -55.9685 -55.9685 -55.9684 -55.9684
   -55.9668 -55.9668 -55.9668 -55.9668 -55.9665 -55.9665 -55.9665 -55.9665
   -55.9543 -55.9543 -55.9542 -55.9542 -55.9540 -55.9540 -55.9539 -55.9539
   -55.9538 -55.9538 -55.9538 -55.9538 -55.9537 -55.9537 -55.9536 -55.9536
   -55.9535 -55.9535 -55.9534 -55.9534 -55.9532 -55.9532 -55.9531 -55.9531
   -55.9531 -55.9531 -55.9530 -55.9530 -55.9529 -55.9529 -55.9528 -55.9528
   -55.9092 -55.9092 -55.9091 -55.9091 -55.9090 -55.9090 -55.9090 -55.9090
   -55.9088 -55.9088 -55.9088 -55.9088 -55.9087 -55.9087 -55.9087 -55.9087
   -55.8978 -55.8978 -55.8977 -55.8977 -55.8975 -55.8975 -55.8975 -55.8975
   -55.8974 -55.8974 -55.8974 -55.8974 -55.8973 -55.8973 -55.8973 -55.8973
   -55.8972 -55.8972 -55.8971 -55.8971 -55.8971 -55.8971 -55.8970 -55.8970
   -55.8969 -55.8969 -55.8969 -55.8969 -55.8967 -55.8967 -55.8967 -55.8967
   -16.7326 -16.7326 -16.7326 -16.7326 -16.7321 -16.7321 -16.7320 -16.7320
   -12.4237 -12.4237 -12.4237 -12.4237 -12.4121 -12.4121 -12.4121 -12.4121
   -12.3701 -12.3701 -12.3701 -12.3701 -12.3572 -12.3572 -12.3572 -12.3572
   -12.2924 -12.2924 -12.2924 -12.2924 -12.2919 -12.2919 -12.2919 -12.2919
   -12.2904 -12.2904 -12.2904 -12.2904 -12.2898 -12.2898 -12.2898 -12.2898
   -12.2882 -12.2882 -12.2882 -12.2882 -12.2876 -12.2876 -12.2876 -12.2876
   -10.1320 -10.1320 -10.1320 -10.1320 -10.0850 -10.0850 -10.0850 -10.0850
    -9.9932  -9.9932  -9.9932  -9.9932  -9.9910  -9.9910  -9.9910  -9.9910
    -9.8139  -9.8139  -9.8139  -9.8139  -9.7366  -9.7366  -9.7366  -9.7366
    -3.8445  -3.8445  -3.8445  -3.8445  -3.6419  -3.6419  -3.6419  -3.6419
    -3.5452  -3.5452  -3.5452  -3.5452  -3.5417  -3.5417  -3.5417  -3.5417
    -3.5311  -3.5311  -3.5311  -3.5311  -3.5265  -3.5265  -3.5265  -3.5265
    -3.5164  -3.5164  -3.5164  -3.5164  -3.4912  -3.4912  -3.4912  -3.4912
     0.3148   0.3148   0.3148   0.3148   0.3703   0.3703   0.3703   0.3703
     0.7452   0.7452   0.7452   0.7452   1.3688   1.3688   1.3688   1.3688
     1.4470   1.4470   1.4470   1.4470   1.5258   1.5258   1.5258   1.5258
     1.8848   1.8848   1.8848   1.8848   1.9186   1.9186   1.9186   1.9186
     2.1416   2.1416   2.1416   2.1416   2.1884   2.1884   2.1884   2.1884
     2.2145   2.2145   2.2145   2.2145   2.2221   2.2221   2.2221   2.2221
     2.2630   2.2630   2.2630   2.2630   2.2786   2.2786   2.2786   2.2786
     2.4454   2.4454   2.4454   2.4454   2.5807   2.5807   2.5807   2.5807
     2.9802   2.9802   2.9802   2.9802   3.1646   3.1646   3.1646   3.1646

     highest occupied level (ev):     3.9544

!    total energy              =   -4345.79146041 Ry
     estimated scf accuracy    <       0.00000002 Ry

     The total energy is the sum of the following terms:
     one-electron contribution =   -3809.87931428 Ry
     hartree contribution      =    1925.24383834 Ry
     xc contribution           =    -575.43730144 Ry
     ewald contribution        =   -1885.71868303 Ry

     convergence has been achieved in   9 iterations

     Writing output data file ../CsPbBr3/unified.save/

     General routines

     Parallel routines

   This run was terminated on:   7:30:16  26Oct2020

   JOB DONE.